1007.12,56.23,67.39
1021.66,55.43,66.43
1104.27,51.28,61.46
988.75,57.27,68.64
1007.64,56.2,67.35
1009.95,56.07,67.2
1005.81,56.3,67.47
983.94,57.55,68.97
1056.69,53.59,64.22
1112.81,50.89,60.99
954.0,59.36,71.14
1082.06,52.33,62.72
1062.41,53.3,63.88
1042.72,54.31,65.08
1008.84,56.13,67.27
1098.02,51.57,61.81
1033.94,54.77,65.64
1005.97,56.29,67.46
989.8,57.21,68.56
1024.77,55.26,66.22
